1600 3200
1 2 5
1 41 4
2 3 2
2 42 5
3 4 3
3 43 3
4 5 5
4 44 4
5 6 3
5 45 5
6 7 1
6 46 2
7 8 3
7 47 4
8 9 3
8 48 1
9 10 4
9 49 2
10 11 5
10 50 5
11 12 4
11 51 1
12 13 2
12 52 3
13 14 5
13 53 1
14 15 5
14 54 3
15 16 5
15 55 4
16 17 2
16 56 1
17 18 5
17 57 5
18 19 5
18 58 1
19 20 1
19 59 4
20 21 4
20 60 5
21 22 1
21 61 3
22 23 5
22 62 2
23 24 3
23 63 1
24 25 1
24 64 5
25 26 5
25 65 5
26 27 2
26 66 1
27 28 5
27 67 2
28 29 5
28 68 4
29 30 2
29 69 5
30 31 5
30 70 2
31 32 5
31 71 1
32 33 4
32 72 1
33 34 1
33 73 5
34 35 3
34 74 2
35 36 1
35 75 3
36 37 4
36 76 2
37 38 4
37 77 3
38 39 5
38 78 3
39 40 1
39 79 4
40 80 5
41 42 1
41 81 3
42 43 2
42 82 4
43 44 4
43 83 5
44 45 4
44 84 1
45 46 3
45 85 2
46 47 3
46 86 1
47 48 1
47 87 3
48 49 4
48 88 2
49 50 1
49 89 3
50 51 5
50 90 5
51 52 2
51 91 1
52 53 4
52 92 5
53 54 4
53 93 4
54 55 3
54 94 4
55 56 3
55 95 1
56 57 1
56 96 4
57 58 3
57 97 4
58 59 4
58 98 2
59 60 3
59 99 5
60 61 5
60 100 2
61 62 1
61 101 2
62 63 3
62 102 1
63 64 2
63 103 1
64 65 2
64 104 2
65 66 2
65 105 3
66 67 1
66 106 4
67 68 1
67 107 2
68 69 1
68 108 5
69 70 2
69 109 3
70 71 1
70 110 3
71 72 1
71 111 4
72 73 5
72 112 2
73 74 4
73 113 1
74 75 2
74 114 1
75 76 5
75 115 2
76 77 1
76 116 4
77 78 4
77 117 3
78 79 2
78 118 3
79 80 1
79 119 1
80 120 2
81 82 4
81 121 5
82 83 4
82 122 4
83 84 4
83 123 3
84 85 1
84 124 2
85 86 5
85 125 4
86 87 5
86 126 2
87 88 1
87 127 2
88 89 3
88 128 1
89 90 5
89 129 1
90 91 1
90 130 5
91 92 2
91 131 4
92 93 4
92 132 3
93 94 1
93 133 3
94 95 2
94 134 1
95 96 3
95 135 3
96 97 2
96 136 5
97 98 5
97 137 1
98 99 1
98 138 5
99 100 3
99 139 1
100 101 1
100 140 1
101 102 1
101 141 2
102 103 5
102 142 4
103 104 1
103 143 3
104 105 1
104 144 2
105 106 3
105 145 3
106 107 5
106 146 1
107 108 5
107 147 5
108 109 2
108 148 4
109 110 4
109 149 3
110 111 1
110 150 1
111 112 4
111 151 4
112 113 4
112 152 4
113 114 3
113 153 2
114 115 4
114 154 1
115 116 4
115 155 2
116 117 4
116 156 4
117 118 1
117 157 4
118 119 2
118 158 1
119 120 3
119 159 1
120 160 4
121 122 3
121 161 3
122 123 1
122 162 4
123 124 4
123 163 5
124 125 2
124 164 5
125 126 5
125 165 4
126 127 5
126 166 2
127 128 4
127 167 2
128 129 3
128 168 4
129 130 4
129 169 1
130 131 1
130 170 1
131 132 5
131 171 4
132 133 2
132 172 3
133 134 3
133 173 1
134 135 3
134 174 4
135 136 2
135 175 3
136 137 4
136 176 5
137 138 2
137 177 4
138 139 2
138 178 2
139 140 2
139 179 5
140 141 4
140 180 1
141 142 2
141 181 5
142 143 2
142 182 2
143 144 1
143 183 2
144 145 4
144 184 4
145 146 1
145 185 4
146 147 1
146 186 3
147 148 5
147 187 1
148 149 5
148 188 1
149 150 1
149 189 1
150 151 3
150 190 1
151 152 4
151 191 1
152 153 3
152 192 1
153 154 5
153 193 1
154 155 4
154 194 1
155 156 1
155 195 3
156 157 4
156 196 3
157 158 5
157 197 2
158 159 4
158 198 5
159 160 2
159 199 2
160 200 3
161 162 2
161 201 5
162 163 3
162 202 2
163 164 2
163 203 4
164 165 3
164 204 4
165 166 2
165 205 4
166 167 1
166 206 5
167 168 3
167 207 4
168 169 1
168 208 2
169 170 2
169 209 4
170 171 2
170 210 2
171 172 2
171 211 4
172 173 4
172 212 5
173 174 5
173 213 3
174 175 3
174 214 4
175 176 5
175 215 3
176 177 2
176 216 1
177 178 5
177 217 4
178 179 3
178 218 5
179 180 3
179 219 2
180 181 4
180 220 1
181 182 2
181 221 2
182 183 4
182 222 2
183 184 5
183 223 3
184 185 1
184 224 2
185 186 1
185 225 2
186 187 5
186 226 1
187 188 5
187 227 1
188 189 4
188 228 2
189 190 3
189 229 2
190 191 3
190 230 5
191 192 5
191 231 2
192 193 5
192 232 2
193 194 3
193 233 5
194 195 1
194 234 4
195 196 2
195 235 5
196 197 5
196 236 5
197 198 2
197 237 4
198 199 5
198 238 2
199 200 3
199 239 3
200 240 5
201 202 2
201 241 2
202 203 1
202 242 4
203 204 3
203 243 5
204 205 4
204 244 2
205 206 4
205 245 2
206 207 3
206 246 5
207 208 3
207 247 4
208 209 5
208 248 5
209 210 1
209 249 5
210 211 3
210 250 4
211 212 4
211 251 4
212 213 2
212 252 2
213 214 2
213 253 4
214 215 5
214 254 1
215 216 4
215 255 4
216 217 4
216 256 5
217 218 5
217 257 2
218 219 1
218 258 2
219 220 2
219 259 5
220 221 4
220 260 4
221 222 1
221 261 2
222 223 1
222 262 3
223 224 5
223 263 3
224 225 1
224 264 2
225 226 5
225 265 3
226 227 5
226 266 5
227 228 1
227 267 3
228 229 5
228 268 5
229 230 4
229 269 3
230 231 5
230 270 5
231 232 2
231 271 3
232 233 4
232 272 1
233 234 1
233 273 5
234 235 4
234 274 5
235 236 2
235 275 3
236 237 1
236 276 4
237 238 5
237 277 5
238 239 2
238 278 3
239 240 5
239 279 2
240 280 3
241 242 2
241 281 1
242 243 5
242 282 2
243 244 5
243 283 3
244 245 5
244 284 3
245 246 1
245 285 5
246 247 2
246 286 2
247 248 5
247 287 1
248 249 4
248 288 4
249 250 1
249 289 2
250 251 2
250 290 5
251 252 2
251 291 3
252 253 1
252 292 5
253 254 4
253 293 3
254 255 4
254 294 1
255 256 4
255 295 1
256 257 4
256 296 2
257 258 5
257 297 3
258 259 4
258 298 3
259 260 1
259 299 2
260 261 5
260 300 1
261 262 3
261 301 1
262 263 3
262 302 2
263 264 4
263 303 3
264 265 3
264 304 1
265 266 4
265 305 4
266 267 5
266 306 5
267 268 5
267 307 5
268 269 3
268 308 2
269 270 3
269 309 1
270 271 1
270 310 5
271 272 2
271 311 2
272 273 2
272 312 5
273 274 1
273 313 4
274 275 4
274 314 1
275 276 5
275 315 4
276 277 2
276 316 2
277 278 1
277 317 1
278 279 2
278 318 4
279 280 2
279 319 2
280 320 4
281 282 1
281 321 2
282 283 1
282 322 1
283 284 1
283 323 2
284 285 5
284 324 5
285 286 2
285 325 2
286 287 4
286 326 4
287 288 5
287 327 3
288 289 3
288 328 4
289 290 1
289 329 1
290 291 4
290 330 3
291 292 1
291 331 2
292 293 5
292 332 3
293 294 4
293 333 2
294 295 2
294 334 1
295 296 4
295 335 4
296 297 2
296 336 5
297 298 2
297 337 1
298 299 4
298 338 1
299 300 5
299 339 4
300 301 2
300 340 5
301 302 2
301 341 5
302 303 5
302 342 5
303 304 2
303 343 3
304 305 4
304 344 1
305 306 3
305 345 3
306 307 4
306 346 2
307 308 3
307 347 5
308 309 2
308 348 5
309 310 1
309 349 3
310 311 4
310 350 3
311 312 5
311 351 5
312 313 4
312 352 1
313 314 5
313 353 5
314 315 1
314 354 3
315 316 4
315 355 2
316 317 3
316 356 1
317 318 2
317 357 1
318 319 4
318 358 3
319 320 3
319 359 2
320 360 2
321 322 3
321 361 4
322 323 3
322 362 2
323 324 2
323 363 3
324 325 1
324 364 2
325 326 5
325 365 4
326 327 3
326 366 1
327 328 3
327 367 3
328 329 3
328 368 5
329 330 3
329 369 1
330 331 5
330 370 1
331 332 4
331 371 4
332 333 3
332 372 4
333 334 2
333 373 5
334 335 2
334 374 2
335 336 5
335 375 5
336 337 3
336 376 3
337 338 2
337 377 1
338 339 5
338 378 1
339 340 5
339 379 1
340 341 1
340 380 2
341 342 3
341 381 2
342 343 2
342 382 2
343 344 1
343 383 4
344 345 5
344 384 1
345 346 1
345 385 5
346 347 3
346 386 2
347 348 2
347 387 5
348 349 2
348 388 5
349 350 1
349 389 4
350 351 2
350 390 2
351 352 4
351 391 1
352 353 1
352 392 2
353 354 1
353 393 4
354 355 1
354 394 5
355 356 5
355 395 4
356 357 4
356 396 5
357 358 1
357 397 4
358 359 2
358 398 2
359 360 1
359 399 2
360 400 2
361 362 1
361 401 1
362 363 5
362 402 4
363 364 1
363 403 1
364 365 3
364 404 3
365 366 1
365 405 1
366 367 5
366 406 4
367 368 5
367 407 4
368 369 5
368 408 1
369 370 1
369 409 2
370 371 3
370 410 4
371 372 3
371 411 4
372 373 3
372 412 5
373 374 3
373 413 5
374 375 2
374 414 3
375 376 4
375 415 3
376 377 1
376 416 5
377 378 1
377 417 5
378 379 1
378 418 5
379 380 2
379 419 3
380 381 3
380 420 4
381 382 5
381 421 2
382 383 3
382 422 3
383 384 3
383 423 2
384 385 1
384 424 5
385 386 1
385 425 4
386 387 3
386 426 3
387 388 4
387 427 2
388 389 5
388 428 3
389 390 5
389 429 1
390 391 2
390 430 1
391 392 1
391 431 1
392 393 1
392 432 4
393 394 1
393 433 4
394 395 5
394 434 4
395 396 1
395 435 1
396 397 1
396 436 2
397 398 4
397 437 1
398 399 2
398 438 2
399 400 4
399 439 2
400 440 3
401 402 4
401 441 5
402 403 4
402 442 4
403 404 4
403 443 4
404 405 5
404 444 3
405 406 5
405 445 1
406 407 1
406 446 5
407 408 2
407 447 4
408 409 4
408 448 5
409 410 2
409 449 5
410 411 4
410 450 4
411 412 5
411 451 4
412 413 1
412 452 3
413 414 2
413 453 4
414 415 4
414 454 2
415 416 2
415 455 4
416 417 2
416 456 3
417 418 1
417 457 5
418 419 4
418 458 3
419 420 1
419 459 1
420 421 2
420 460 4
421 422 5
421 461 2
422 423 5
422 462 4
423 424 5
423 463 5
424 425 4
424 464 4
425 426 2
425 465 1
426 427 3
426 466 1
427 428 3
427 467 5
428 429 3
428 468 3
429 430 4
429 469 1
430 431 1
430 470 4
431 432 2
431 471 1
432 433 2
432 472 1
433 434 1
433 473 5
434 435 1
434 474 4
435 436 3
435 475 4
436 437 3
436 476 2
437 438 2
437 477 3
438 439 1
438 478 3
439 440 2
439 479 3
440 480 5
441 442 3
441 481 2
442 443 2
442 482 5
443 444 3
443 483 2
444 445 3
444 484 1
445 446 3
445 485 5
446 447 2
446 486 1
447 448 5
447 487 4
448 449 5
448 488 2
449 450 3
449 489 3
450 451 4
450 490 4
451 452 3
451 491 5
452 453 3
452 492 4
453 454 2
453 493 4
454 455 3
454 494 3
455 456 5
455 495 2
456 457 4
456 496 2
457 458 1
457 497 3
458 459 4
458 498 1
459 460 5
459 499 2
460 461 2
460 500 3
461 462 2
461 501 1
462 463 4
462 502 4
463 464 5
463 503 2
464 465 4
464 504 3
465 466 5
465 505 4
466 467 2
466 506 4
467 468 1
467 507 2
468 469 4
468 508 3
469 470 2
469 509 2
470 471 2
470 510 2
471 472 4
471 511 3
472 473 5
472 512 3
473 474 4
473 513 5
474 475 5
474 514 4
475 476 4
475 515 5
476 477 5
476 516 1
477 478 3
477 517 4
478 479 1
478 518 2
479 480 4
479 519 2
480 520 5
481 482 3
481 521 4
482 483 4
482 522 4
483 484 4
483 523 3
484 485 2
484 524 4
485 486 2
485 525 1
486 487 5
486 526 1
487 488 1
487 527 5
488 489 1
488 528 1
489 490 2
489 529 3
490 491 2
490 530 4
491 492 4
491 531 4
492 493 3
492 532 2
493 494 2
493 533 2
494 495 5
494 534 1
495 496 1
495 535 3
496 497 3
496 536 1
497 498 2
497 537 4
498 499 4
498 538 1
499 500 3
499 539 5
500 501 5
500 540 2
501 502 3
501 541 5
502 503 5
502 542 4
503 504 1
503 543 1
504 505 5
504 544 4
505 506 5
505 545 5
506 507 4
506 546 5
507 508 2
507 547 2
508 509 3
508 548 2
509 510 1
509 549 1
510 511 4
510 550 5
511 512 4
511 551 3
512 513 5
512 552 3
513 514 4
513 553 3
514 515 4
514 554 3
515 516 1
515 555 4
516 517 4
516 556 3
517 518 4
517 557 5
518 519 1
518 558 1
519 520 3
519 559 3
520 560 5
521 522 3
521 561 1
522 523 4
522 562 1
523 524 5
523 563 3
524 525 3
524 564 5
525 526 3
525 565 1
526 527 5
526 566 5
527 528 5
527 567 5
528 529 2
528 568 2
529 530 4
529 569 3
530 531 4
530 570 5
531 532 2
531 571 4
532 533 3
532 572 3
533 534 5
533 573 2
534 535 1
534 574 1
535 536 2
535 575 4
536 537 2
536 576 5
537 538 1
537 577 5
538 539 5
538 578 1
539 540 4
539 579 2
540 541 4
540 580 3
541 542 2
541 581 4
542 543 2
542 582 3
543 544 4
543 583 2
544 545 1
544 584 1
545 546 2
545 585 5
546 547 2
546 586 3
547 548 5
547 587 4
548 549 3
548 588 3
549 550 2
549 589 5
550 551 3
550 590 1
551 552 3
551 591 5
552 553 4
552 592 1
553 554 4
553 593 4
554 555 3
554 594 5
555 556 3
555 595 4
556 557 5
556 596 1
557 558 4
557 597 4
558 559 1
558 598 3
559 560 4
559 599 4
560 600 5
561 562 5
561 601 4
562 563 5
562 602 1
563 564 3
563 603 5
564 565 4
564 604 4
565 566 5
565 605 1
566 567 1
566 606 5
567 568 3
567 607 5
568 569 1
568 608 3
569 570 2
569 609 1
570 571 1
570 610 3
571 572 4
571 611 4
572 573 3
572 612 2
573 574 3
573 613 3
574 575 4
574 614 1
575 576 1
575 615 4
576 577 3
576 616 5
577 578 3
577 617 4
578 579 2
578 618 3
579 580 5
579 619 3
580 581 2
580 620 3
581 582 1
581 621 1
582 583 3
582 622 2
583 584 3
583 623 2
584 585 5
584 624 3
585 586 2
585 625 3
586 587 5
586 626 3
587 588 5
587 627 3
588 589 3
588 628 5
589 590 2
589 629 1
590 591 5
590 630 3
591 592 2
591 631 2
592 593 2
592 632 5
593 594 2
593 633 3
594 595 4
594 634 1
595 596 2
595 635 5
596 597 3
596 636 1
597 598 5
597 637 2
598 599 4
598 638 3
599 600 3
599 639 1
600 640 4
601 602 5
601 641 1
602 603 1
602 642 2
603 604 4
603 643 5
604 605 2
604 644 5
605 606 4
605 645 5
606 607 5
606 646 5
607 608 5
607 647 5
608 609 3
608 648 5
609 610 1
609 649 1
610 611 3
610 650 5
611 612 4
611 651 3
612 613 5
612 652 4
613 614 2
613 653 2
614 615 1
614 654 5
615 616 1
615 655 4
616 617 2
616 656 3
617 618 3
617 657 4
618 619 4
618 658 3
619 620 2
619 659 1
620 621 3
620 660 2
621 622 4
621 661 1
622 623 2
622 662 1
623 624 3
623 663 5
624 625 2
624 664 3
625 626 5
625 665 5
626 627 4
626 666 1
627 628 2
627 667 3
628 629 1
628 668 1
629 630 5
629 669 4
630 631 3
630 670 2
631 632 1
631 671 4
632 633 4
632 672 5
633 634 5
633 673 2
634 635 3
634 674 5
635 636 4
635 675 3
636 637 5
636 676 2
637 638 1
637 677 1
638 639 2
638 678 4
639 640 2
639 679 3
640 680 2
641 642 3
641 681 1
642 643 4
642 682 3
643 644 3
643 683 4
644 645 3
644 684 5
645 646 3
645 685 2
646 647 4
646 686 2
647 648 1
647 687 4
648 649 2
648 688 1
649 650 1
649 689 5
650 651 4
650 690 4
651 652 1
651 691 1
652 653 5
652 692 3
653 654 1
653 693 5
654 655 5
654 694 4
655 656 5
655 695 2
656 657 5
656 696 3
657 658 3
657 697 3
658 659 4
658 698 5
659 660 3
659 699 3
660 661 3
660 700 1
661 662 2
661 701 1
662 663 3
662 702 4
663 664 4
663 703 5
664 665 2
664 704 3
665 666 4
665 705 3
666 667 3
666 706 5
667 668 2
667 707 4
668 669 4
668 708 3
669 670 2
669 709 2
670 671 3
670 710 5
671 672 3
671 711 2
672 673 5
672 712 4
673 674 2
673 713 1
674 675 3
674 714 5
675 676 1
675 715 2
676 677 2
676 716 3
677 678 1
677 717 1
678 679 1
678 718 1
679 680 4
679 719 5
680 720 5
681 682 3
681 721 1
682 683 2
682 722 4
683 684 3
683 723 3
684 685 2
684 724 1
685 686 5
685 725 2
686 687 3
686 726 4
687 688 2
687 727 3
688 689 5
688 728 3
689 690 3
689 729 5
690 691 3
690 730 4
691 692 1
691 731 2
692 693 1
692 732 5
693 694 3
693 733 1
694 695 1
694 734 5
695 696 4
695 735 4
696 697 2
696 736 4
697 698 5
697 737 4
698 699 2
698 738 3
699 700 2
699 739 2
700 701 5
700 740 1
701 702 2
701 741 1
702 703 1
702 742 4
703 704 5
703 743 1
704 705 1
704 744 4
705 706 1
705 745 3
706 707 1
706 746 5
707 708 2
707 747 3
708 709 3
708 748 3
709 710 1
709 749 1
710 711 4
710 750 2
711 712 3
711 751 3
712 713 4
712 752 2
713 714 4
713 753 3
714 715 2
714 754 2
715 716 1
715 755 4
716 717 2
716 756 5
717 718 4
717 757 1
718 719 5
718 758 4
719 720 4
719 759 2
720 760 1
721 722 3
721 761 1
722 723 3
722 762 5
723 724 5
723 763 2
724 725 2
724 764 1
725 726 5
725 765 3
726 727 4
726 766 2
727 728 3
727 767 5
728 729 3
728 768 5
729 730 1
729 769 1
730 731 5
730 770 2
731 732 5
731 771 2
732 733 5
732 772 3
733 734 4
733 773 2
734 735 3
734 774 5
735 736 5
735 775 3
736 737 5
736 776 1
737 738 1
737 777 4
738 739 5
738 778 2
739 740 2
739 779 3
740 741 1
740 780 3
741 742 5
741 781 3
742 743 2
742 782 3
743 744 4
743 783 2
744 745 1
744 784 4
745 746 5
745 785 5
746 747 5
746 786 2
747 748 4
747 787 3
748 749 3
748 788 4
749 750 5
749 789 4
750 751 2
750 790 1
751 752 2
751 791 4
752 753 1
752 792 2
753 754 1
753 793 2
754 755 2
754 794 2
755 756 2
755 795 4
756 757 3
756 796 5
757 758 1
757 797 4
758 759 5
758 798 3
759 760 2
759 799 4
760 800 5
761 762 5
761 801 1
762 763 4
762 802 5
763 764 5
763 803 1
764 765 5
764 804 5
765 766 3
765 805 3
766 767 3
766 806 5
767 768 2
767 807 1
768 769 4
768 808 1
769 770 2
769 809 4
770 771 3
770 810 5
771 772 1
771 811 2
772 773 2
772 812 4
773 774 1
773 813 4
774 775 5
774 814 3
775 776 5
775 815 2
776 777 3
776 816 1
777 778 4
777 817 4
778 779 2
778 818 1
779 780 2
779 819 2
780 781 5
780 820 1
781 782 5
781 821 3
782 783 3
782 822 2
783 784 2
783 823 1
784 785 5
784 824 5
785 786 1
785 825 2
786 787 4
786 826 1
787 788 5
787 827 4
788 789 2
788 828 3
789 790 1
789 829 3
790 791 2
790 830 5
791 792 4
791 831 1
792 793 5
792 832 2
793 794 2
793 833 5
794 795 5
794 834 4
795 796 2
795 835 3
796 797 5
796 836 1
797 798 5
797 837 5
798 799 2
798 838 1
799 800 4
799 839 2
800 840 2
801 802 1
801 841 4
802 803 2
802 842 3
803 804 3
803 843 4
804 805 3
804 844 4
805 806 2
805 845 2
806 807 1
806 846 5
807 808 3
807 847 3
808 809 1
808 848 4
809 810 1
809 849 2
810 811 1
810 850 1
811 812 2
811 851 3
812 813 3
812 852 2
813 814 1
813 853 5
814 815 1
814 854 1
815 816 4
815 855 4
816 817 2
816 856 4
817 818 1
817 857 3
818 819 4
818 858 4
819 820 3
819 859 5
820 821 3
820 860 5
821 822 3
821 861 4
822 823 3
822 862 3
823 824 4
823 863 5
824 825 5
824 864 4
825 826 2
825 865 5
826 827 1
826 866 2
827 828 2
827 867 1
828 829 5
828 868 4
829 830 4
829 869 1
830 831 3
830 870 1
831 832 2
831 871 2
832 833 5
832 872 5
833 834 4
833 873 4
834 835 4
834 874 4
835 836 4
835 875 4
836 837 4
836 876 2
837 838 5
837 877 1
838 839 3
838 878 3
839 840 1
839 879 5
840 880 5
841 842 1
841 881 5
842 843 3
842 882 3
843 844 5
843 883 4
844 845 4
844 884 2
845 846 5
845 885 2
846 847 5
846 886 4
847 848 5
847 887 5
848 849 5
848 888 4
849 850 1
849 889 4
850 851 2
850 890 2
851 852 5
851 891 1
852 853 2
852 892 3
853 854 5
853 893 2
854 855 1
854 894 3
855 856 4
855 895 5
856 857 1
856 896 1
857 858 4
857 897 2
858 859 1
858 898 3
859 860 4
859 899 3
860 861 1
860 900 3
861 862 5
861 901 1
862 863 5
862 902 2
863 864 5
863 903 3
864 865 3
864 904 3
865 866 2
865 905 4
866 867 3
866 906 2
867 868 1
867 907 2
868 869 4
868 908 1
869 870 3
869 909 3
870 871 5
870 910 1
871 872 4
871 911 3
872 873 1
872 912 1
873 874 2
873 913 5
874 875 1
874 914 5
875 876 4
875 915 3
876 877 3
876 916 1
877 878 4
877 917 2
878 879 1
878 918 1
879 880 4
879 919 3
880 920 2
881 882 4
881 921 3
882 883 2
882 922 5
883 884 1
883 923 5
884 885 2
884 924 4
885 886 4
885 925 2
886 887 2
886 926 1
887 888 2
887 927 4
888 889 1
888 928 5
889 890 1
889 929 4
890 891 4
890 930 3
891 892 2
891 931 1
892 893 5
892 932 2
893 894 4
893 933 4
894 895 2
894 934 1
895 896 1
895 935 3
896 897 5
896 936 1
897 898 3
897 937 2
898 899 4
898 938 4
899 900 2
899 939 3
900 901 1
900 940 5
901 902 1
901 941 4
902 903 1
902 942 1
903 904 3
903 943 2
904 905 3
904 944 1
905 906 5
905 945 1
906 907 4
906 946 1
907 908 2
907 947 5
908 909 1
908 948 4
909 910 4
909 949 3
910 911 2
910 950 1
911 912 5
911 951 3
912 913 3
912 952 5
913 914 5
913 953 5
914 915 2
914 954 1
915 916 4
915 955 5
916 917 1
916 956 3
917 918 3
917 957 3
918 919 4
918 958 2
919 920 2
919 959 1
920 960 3
921 922 1
921 961 3
922 923 1
922 962 1
923 924 4
923 963 5
924 925 1
924 964 2
925 926 5
925 965 3
926 927 3
926 966 5
927 928 2
927 967 2
928 929 1
928 968 5
929 930 5
929 969 1
930 931 1
930 970 4
931 932 2
931 971 2
932 933 1
932 972 2
933 934 3
933 973 4
934 935 3
934 974 4
935 936 5
935 975 3
936 937 1
936 976 3
937 938 3
937 977 5
938 939 4
938 978 5
939 940 2
939 979 2
940 941 5
940 980 4
941 942 1
941 981 1
942 943 1
942 982 3
943 944 2
943 983 2
944 945 2
944 984 3
945 946 2
945 985 3
946 947 2
946 986 3
947 948 1
947 987 2
948 949 2
948 988 3
949 950 1
949 989 4
950 951 4
950 990 3
951 952 5
951 991 5
952 953 2
952 992 1
953 954 2
953 993 4
954 955 5
954 994 2
955 956 5
955 995 2
956 957 1
956 996 5
957 958 5
957 997 3
958 959 5
958 998 5
959 960 1
959 999 5
960 1000 4
961 962 1
961 1001 5
962 963 2
962 1002 3
963 964 4
963 1003 1
964 965 4
964 1004 1
965 966 2
965 1005 2
966 967 5
966 1006 4
967 968 1
967 1007 3
968 969 5
968 1008 2
969 970 3
969 1009 3
970 971 5
970 1010 5
971 972 5
971 1011 2
972 973 1
972 1012 3
973 974 4
973 1013 5
974 975 5
974 1014 1
975 976 1
975 1015 1
976 977 4
976 1016 4
977 978 5
977 1017 1
978 979 2
978 1018 4
979 980 5
979 1019 5
980 981 1
980 1020 1
981 982 1
981 1021 2
982 983 2
982 1022 3
983 984 2
983 1023 5
984 985 5
984 1024 1
985 986 3
985 1025 3
986 987 1
986 1026 4
987 988 5
987 1027 5
988 989 5
988 1028 5
989 990 1
989 1029 4
990 991 3
990 1030 5
991 992 1
991 1031 1
992 993 3
992 1032 5
993 994 5
993 1033 3
994 995 3
994 1034 2
995 996 2
995 1035 3
996 997 1
996 1036 3
997 998 3
997 1037 5
998 999 4
998 1038 4
999 1000 4
999 1039 5
1000 1040 2
1001 1002 1
1001 1041 2
1002 1003 1
1002 1042 1
1003 1004 3
1003 1043 4
1004 1005 5
1004 1044 5
1005 1006 2
1005 1045 4
1006 1007 3
1006 1046 5
1007 1008 2
1007 1047 3
1008 1009 4
1008 1048 2
1009 1010 1
1009 1049 5
1010 1011 1
1010 1050 4
1011 1012 4
1011 1051 4
1012 1013 1
1012 1052 2
1013 1014 4
1013 1053 2
1014 1015 2
1014 1054 3
1015 1016 3
1015 1055 1
1016 1017 1
1016 1056 1
1017 1018 4
1017 1057 1
1018 1019 5
1018 1058 5
1019 1020 4
1019 1059 4
1020 1021 5
1020 1060 1
1021 1022 5
1021 1061 2
1022 1023 5
1022 1062 5
1023 1024 2
1023 1063 4
1024 1025 5
1024 1064 5
1025 1026 2
1025 1065 1
1026 1027 2
1026 1066 2
1027 1028 4
1027 1067 1
1028 1029 3
1028 1068 2
1029 1030 4
1029 1069 3
1030 1031 1
1030 1070 1
1031 1032 5
1031 1071 3
1032 1033 3
1032 1072 4
1033 1034 5
1033 1073 2
1034 1035 1
1034 1074 4
1035 1036 5
1035 1075 1
1036 1037 5
1036 1076 3
1037 1038 1
1037 1077 4
1038 1039 3
1038 1078 1
1039 1040 5
1039 1079 4
1040 1080 2
1041 1042 1
1041 1081 2
1042 1043 5
1042 1082 4
1043 1044 1
1043 1083 5
1044 1045 5
1044 1084 3
1045 1046 1
1045 1085 2
1046 1047 3
1046 1086 2
1047 1048 5
1047 1087 5
1048 1049 4
1048 1088 2
1049 1050 2
1049 1089 2
1050 1051 4
1050 1090 1
1051 1052 5
1051 1091 5
1052 1053 3
1052 1092 2
1053 1054 4
1053 1093 4
1054 1055 1
1054 1094 5
1055 1056 3
1055 1095 3
1056 1057 4
1056 1096 4
1057 1058 3
1057 1097 3
1058 1059 2
1058 1098 3
1059 1060 4
1059 1099 1
1060 1061 5
1060 1100 3
1061 1062 2
1061 1101 5
1062 1063 1
1062 1102 5
1063 1064 1
1063 1103 3
1064 1065 5
1064 1104 2
1065 1066 3
1065 1105 5
1066 1067 2
1066 1106 5
1067 1068 4
1067 1107 4
1068 1069 2
1068 1108 4
1069 1070 1
1069 1109 5
1070 1071 2
1070 1110 2
1071 1072 1
1071 1111 1
1072 1073 3
1072 1112 5
1073 1074 2
1073 1113 4
1074 1075 4
1074 1114 2
1075 1076 4
1075 1115 3
1076 1077 5
1076 1116 5
1077 1078 3
1077 1117 3
1078 1079 3
1078 1118 1
1079 1080 1
1079 1119 2
1080 1120 5
1081 1082 3
1081 1121 2
1082 1083 2
1082 1122 5
1083 1084 5
1083 1123 4
1084 1085 3
1084 1124 4
1085 1086 1
1085 1125 3
1086 1087 2
1086 1126 4
1087 1088 1
1087 1127 3
1088 1089 5
1088 1128 4
1089 1090 2
1089 1129 2
1090 1091 5
1090 1130 1
1091 1092 3
1091 1131 4
1092 1093 1
1092 1132 1
1093 1094 3
1093 1133 5
1094 1095 2
1094 1134 4
1095 1096 2
1095 1135 5
1096 1097 5
1096 1136 1
1097 1098 4
1097 1137 1
1098 1099 3
1098 1138 1
1099 1100 2
1099 1139 2
1100 1101 4
1100 1140 4
1101 1102 2
1101 1141 4
1102 1103 4
1102 1142 2
1103 1104 5
1103 1143 2
1104 1105 1
1104 1144 1
1105 1106 3
1105 1145 3
1106 1107 5
1106 1146 3
1107 1108 3
1107 1147 4
1108 1109 3
1108 1148 3
1109 1110 1
1109 1149 5
1110 1111 2
1110 1150 1
1111 1112 5
1111 1151 5
1112 1113 3
1112 1152 5
1113 1114 3
1113 1153 5
1114 1115 5
1114 1154 1
1115 1116 3
1115 1155 2
1116 1117 1
1116 1156 4
1117 1118 3
1117 1157 5
1118 1119 5
1118 1158 3
1119 1120 1
1119 1159 5
1120 1160 3
1121 1122 4
1121 1161 1
1122 1123 2
1122 1162 3
1123 1124 3
1123 1163 3
1124 1125 2
1124 1164 1
1125 1126 4
1125 1165 4
1126 1127 4
1126 1166 1
1127 1128 2
1127 1167 3
1128 1129 1
1128 1168 3
1129 1130 4
1129 1169 1
1130 1131 4
1130 1170 3
1131 1132 2
1131 1171 3
1132 1133 5
1132 1172 4
1133 1134 5
1133 1173 5
1134 1135 2
1134 1174 1
1135 1136 4
1135 1175 1
1136 1137 1
1136 1176 3
1137 1138 4
1137 1177 5
1138 1139 3
1138 1178 5
1139 1140 5
1139 1179 5
1140 1141 4
1140 1180 2
1141 1142 5
1141 1181 5
1142 1143 4
1142 1182 2
1143 1144 4
1143 1183 1
1144 1145 3
1144 1184 1
1145 1146 2
1145 1185 4
1146 1147 4
1146 1186 2
1147 1148 1
1147 1187 2
1148 1149 4
1148 1188 4
1149 1150 3
1149 1189 3
1150 1151 5
1150 1190 5
1151 1152 2
1151 1191 4
1152 1153 3
1152 1192 3
1153 1154 5
1153 1193 1
1154 1155 4
1154 1194 5
1155 1156 4
1155 1195 2
1156 1157 3
1156 1196 1
1157 1158 5
1157 1197 3
1158 1159 4
1158 1198 3
1159 1160 2
1159 1199 4
1160 1200 4
1161 1162 5
1161 1201 3
1162 1163 4
1162 1202 2
1163 1164 5
1163 1203 1
1164 1165 2
1164 1204 5
1165 1166 2
1165 1205 4
1166 1167 4
1166 1206 2
1167 1168 2
1167 1207 1
1168 1169 2
1168 1208 3
1169 1170 2
1169 1209 2
1170 1171 4
1170 1210 1
1171 1172 4
1171 1211 1
1172 1173 5
1172 1212 3
1173 1174 1
1173 1213 5
1174 1175 2
1174 1214 3
1175 1176 4
1175 1215 2
1176 1177 4
1176 1216 3
1177 1178 1
1177 1217 2
1178 1179 1
1178 1218 2
1179 1180 4
1179 1219 1
1180 1181 4
1180 1220 4
1181 1182 4
1181 1221 5
1182 1183 3
1182 1222 2
1183 1184 5
1183 1223 1
1184 1185 1
1184 1224 2
1185 1186 1
1185 1225 3
1186 1187 3
1186 1226 1
1187 1188 2
1187 1227 1
1188 1189 2
1188 1228 2
1189 1190 4
1189 1229 2
1190 1191 5
1190 1230 3
1191 1192 4
1191 1231 1
1192 1193 3
1192 1232 5
1193 1194 3
1193 1233 3
1194 1195 4
1194 1234 5
1195 1196 1
1195 1235 5
1196 1197 3
1196 1236 1
1197 1198 5
1197 1237 3
1198 1199 4
1198 1238 3
1199 1200 1
1199 1239 3
1200 1240 1
1201 1202 3
1201 1241 2
1202 1203 4
1202 1242 5
1203 1204 2
1203 1243 4
1204 1205 2
1204 1244 1
1205 1206 1
1205 1245 2
1206 1207 2
1206 1246 4
1207 1208 4
1207 1247 3
1208 1209 4
1208 1248 5
1209 1210 3
1209 1249 4
1210 1211 3
1210 1250 2
1211 1212 4
1211 1251 2
1212 1213 1
1212 1252 5
1213 1214 1
1213 1253 5
1214 1215 5
1214 1254 3
1215 1216 2
1215 1255 3
1216 1217 5
1216 1256 2
1217 1218 1
1217 1257 1
1218 1219 3
1218 1258 3
1219 1220 1
1219 1259 3
1220 1221 2
1220 1260 2
1221 1222 4
1221 1261 1
1222 1223 3
1222 1262 1
1223 1224 2
1223 1263 3
1224 1225 1
1224 1264 3
1225 1226 2
1225 1265 5
1226 1227 5
1226 1266 4
1227 1228 5
1227 1267 1
1228 1229 5
1228 1268 5
1229 1230 3
1229 1269 1
1230 1231 2
1230 1270 3
1231 1232 1
1231 1271 2
1232 1233 3
1232 1272 1
1233 1234 1
1233 1273 4
1234 1235 4
1234 1274 2
1235 1236 4
1235 1275 3
1236 1237 1
1236 1276 5
1237 1238 2
1237 1277 5
1238 1239 3
1238 1278 4
1239 1240 3
1239 1279 3
1240 1280 3
1241 1242 5
1241 1281 1
1242 1243 2
1242 1282 5
1243 1244 1
1243 1283 2
1244 1245 1
1244 1284 2
1245 1246 5
1245 1285 5
1246 1247 1
1246 1286 3
1247 1248 3
1247 1287 1
1248 1249 4
1248 1288 2
1249 1250 3
1249 1289 5
1250 1251 5
1250 1290 1
1251 1252 3
1251 1291 3
1252 1253 3
1252 1292 5
1253 1254 4
1253 1293 3
1254 1255 5
1254 1294 3
1255 1256 3
1255 1295 5
1256 1257 5
1256 1296 1
1257 1258 2
1257 1297 2
1258 1259 5
1258 1298 4
1259 1260 2
1259 1299 3
1260 1261 1
1260 1300 1
1261 1262 4
1261 1301 1
1262 1263 1
1262 1302 1
1263 1264 2
1263 1303 5
1264 1265 5
1264 1304 4
1265 1266 3
1265 1305 2
1266 1267 2
1266 1306 5
1267 1268 4
1267 1307 1
1268 1269 4
1268 1308 2
1269 1270 3
1269 1309 3
1270 1271 3
1270 1310 5
1271 1272 3
1271 1311 2
1272 1273 5
1272 1312 3
1273 1274 5
1273 1313 3
1274 1275 1
1274 1314 5
1275 1276 3
1275 1315 2
1276 1277 3
1276 1316 4
1277 1278 3
1277 1317 1
1278 1279 4
1278 1318 5
1279 1280 4
1279 1319 1
1280 1320 2
1281 1282 5
1281 1321 1
1282 1283 4
1282 1322 1
1283 1284 4
1283 1323 5
1284 1285 2
1284 1324 1
1285 1286 5
1285 1325 2
1286 1287 2
1286 1326 4
1287 1288 1
1287 1327 5
1288 1289 4
1288 1328 2
1289 1290 1
1289 1329 1
1290 1291 2
1290 1330 3
1291 1292 2
1291 1331 4
1292 1293 4
1292 1332 5
1293 1294 4
1293 1333 2
1294 1295 4
1294 1334 4
1295 1296 4
1295 1335 4
1296 1297 4
1296 1336 1
1297 1298 4
1297 1337 4
1298 1299 2
1298 1338 2
1299 1300 3
1299 1339 5
1300 1301 3
1300 1340 3
1301 1302 2
1301 1341 1
1302 1303 3
1302 1342 5
1303 1304 3
1303 1343 2
1304 1305 2
1304 1344 1
1305 1306 4
1305 1345 2
1306 1307 2
1306 1346 3
1307 1308 5
1307 1347 1
1308 1309 1
1308 1348 3
1309 1310 2
1309 1349 1
1310 1311 2
1310 1350 5
1311 1312 2
1311 1351 5
1312 1313 5
1312 1352 4
1313 1314 3
1313 1353 2
1314 1315 3
1314 1354 3
1315 1316 5
1315 1355 5
1316 1317 1
1316 1356 1
1317 1318 2
1317 1357 5
1318 1319 3
1318 1358 3
1319 1320 3
1319 1359 4
1320 1360 4
1321 1322 2
1321 1361 5
1322 1323 5
1322 1362 5
1323 1324 2
1323 1363 3
1324 1325 1
1324 1364 3
1325 1326 5
1325 1365 3
1326 1327 1
1326 1366 1
1327 1328 1
1327 1367 4
1328 1329 5
1328 1368 1
1329 1330 2
1329 1369 5
1330 1331 1
1330 1370 3
1331 1332 4
1331 1371 4
1332 1333 1
1332 1372 5
1333 1334 5
1333 1373 2
1334 1335 4
1334 1374 4
1335 1336 4
1335 1375 5
1336 1337 4
1336 1376 2
1337 1338 3
1337 1377 5
1338 1339 3
1338 1378 4
1339 1340 2
1339 1379 4
1340 1341 3
1340 1380 2
1341 1342 2
1341 1381 4
1342 1343 2
1342 1382 2
1343 1344 2
1343 1383 5
1344 1345 4
1344 1384 2
1345 1346 1
1345 1385 3
1346 1347 3
1346 1386 1
1347 1348 3
1347 1387 5
1348 1349 1
1348 1388 3
1349 1350 2
1349 1389 4
1350 1351 4
1350 1390 5
1351 1352 5
1351 1391 2
1352 1353 5
1352 1392 3
1353 1354 4
1353 1393 1
1354 1355 2
1354 1394 4
1355 1356 2
1355 1395 2
1356 1357 2
1356 1396 1
1357 1358 4
1357 1397 1
1358 1359 4
1358 1398 4
1359 1360 4
1359 1399 3
1360 1400 2
1361 1362 3
1361 1401 1
1362 1363 4
1362 1402 2
1363 1364 1
1363 1403 4
1364 1365 2
1364 1404 4
1365 1366 1
1365 1405 5
1366 1367 5
1366 1406 4
1367 1368 3
1367 1407 3
1368 1369 5
1368 1408 3
1369 1370 1
1369 1409 4
1370 1371 3
1370 1410 1
1371 1372 3
1371 1411 5
1372 1373 3
1372 1412 3
1373 1374 1
1373 1413 1
1374 1375 2
1374 1414 3
1375 1376 1
1375 1415 3
1376 1377 3
1376 1416 3
1377 1378 5
1377 1417 4
1378 1379 4
1378 1418 5
1379 1380 1
1379 1419 2
1380 1381 2
1380 1420 4
1381 1382 3
1381 1421 4
1382 1383 3
1382 1422 3
1383 1384 3
1383 1423 3
1384 1385 2
1384 1424 5
1385 1386 2
1385 1425 5
1386 1387 3
1386 1426 3
1387 1388 2
1387 1427 4
1388 1389 2
1388 1428 5
1389 1390 4
1389 1429 3
1390 1391 3
1390 1430 5
1391 1392 4
1391 1431 5
1392 1393 3
1392 1432 2
1393 1394 5
1393 1433 2
1394 1395 5
1394 1434 4
1395 1396 2
1395 1435 3
1396 1397 2
1396 1436 3
1397 1398 4
1397 1437 2
1398 1399 3
1398 1438 5
1399 1400 3
1399 1439 5
1400 1440 2
1401 1402 5
1401 1441 1
1402 1403 3
1402 1442 4
1403 1404 2
1403 1443 4
1404 1405 1
1404 1444 2
1405 1406 1
1405 1445 2
1406 1407 5
1406 1446 5
1407 1408 4
1407 1447 5
1408 1409 3
1408 1448 3
1409 1410 1
1409 1449 5
1410 1411 1
1410 1450 2
1411 1412 4
1411 1451 4
1412 1413 2
1412 1452 3
1413 1414 5
1413 1453 3
1414 1415 5
1414 1454 1
1415 1416 1
1415 1455 1
1416 1417 2
1416 1456 3
1417 1418 2
1417 1457 3
1418 1419 1
1418 1458 3
1419 1420 3
1419 1459 2
1420 1421 1
1420 1460 1
1421 1422 1
1421 1461 4
1422 1423 3
1422 1462 3
1423 1424 2
1423 1463 4
1424 1425 4
1424 1464 2
1425 1426 1
1425 1465 4
1426 1427 2
1426 1466 3
1427 1428 4
1427 1467 1
1428 1429 2
1428 1468 1
1429 1430 4
1429 1469 1
1430 1431 2
1430 1470 5
1431 1432 2
1431 1471 2
1432 1433 3
1432 1472 1
1433 1434 4
1433 1473 5
1434 1435 5
1434 1474 5
1435 1436 3
1435 1475 2
1436 1437 4
1436 1476 2
1437 1438 5
1437 1477 5
1438 1439 1
1438 1478 1
1439 1440 3
1439 1479 5
1440 1480 4
1441 1442 2
1441 1481 4
1442 1443 2
1442 1482 2
1443 1444 2
1443 1483 4
1444 1445 4
1444 1484 5
1445 1446 5
1445 1485 4
1446 1447 2
1446 1486 4
1447 1448 1
1447 1487 5
1448 1449 1
1448 1488 2
1449 1450 4
1449 1489 3
1450 1451 4
1450 1490 4
1451 1452 1
1451 1491 4
1452 1453 1
1452 1492 3
1453 1454 4
1453 1493 3
1454 1455 1
1454 1494 3
1455 1456 1
1455 1495 2
1456 1457 3
1456 1496 2
1457 1458 1
1457 1497 1
1458 1459 1
1458 1498 1
1459 1460 3
1459 1499 3
1460 1461 3
1460 1500 5
1461 1462 3
1461 1501 4
1462 1463 4
1462 1502 1
1463 1464 4
1463 1503 5
1464 1465 1
1464 1504 3
1465 1466 5
1465 1505 3
1466 1467 2
1466 1506 1
1467 1468 2
1467 1507 5
1468 1469 4
1468 1508 4
1469 1470 2
1469 1509 1
1470 1471 5
1470 1510 1
1471 1472 5
1471 1511 4
1472 1473 5
1472 1512 2
1473 1474 1
1473 1513 4
1474 1475 2
1474 1514 5
1475 1476 5
1475 1515 4
1476 1477 2
1476 1516 4
1477 1478 2
1477 1517 2
1478 1479 4
1478 1518 2
1479 1480 1
1479 1519 5
1480 1520 5
1481 1482 3
1481 1521 5
1482 1483 3
1482 1522 4
1483 1484 1
1483 1523 2
1484 1485 4
1484 1524 5
1485 1486 3
1485 1525 1
1486 1487 4
1486 1526 3
1487 1488 2
1487 1527 1
1488 1489 5
1488 1528 3
1489 1490 4
1489 1529 2
1490 1491 3
1490 1530 2
1491 1492 2
1491 1531 4
1492 1493 3
1492 1532 3
1493 1494 3
1493 1533 3
1494 1495 4
1494 1534 3
1495 1496 2
1495 1535 5
1496 1497 4
1496 1536 4
1497 1498 3
1497 1537 5
1498 1499 1
1498 1538 1
1499 1500 1
1499 1539 3
1500 1501 3
1500 1540 3
1501 1502 4
1501 1541 4
1502 1503 4
1502 1542 3
1503 1504 5
1503 1543 5
1504 1505 3
1504 1544 5
1505 1506 2
1505 1545 3
1506 1507 3
1506 1546 3
1507 1508 5
1507 1547 4
1508 1509 2
1508 1548 2
1509 1510 5
1509 1549 3
1510 1511 5
1510 1550 5
1511 1512 1
1511 1551 1
1512 1513 5
1512 1552 2
1513 1514 4
1513 1553 2
1514 1515 3
1514 1554 5
1515 1516 5
1515 1555 4
1516 1517 5
1516 1556 4
1517 1518 2
1517 1557 1
1518 1519 5
1518 1558 5
1519 1520 2
1519 1559 1
1520 1560 5
1521 1522 4
1521 1561 2
1522 1523 5
1522 1562 3
1523 1524 3
1523 1563 5
1524 1525 3
1524 1564 1
1525 1526 4
1525 1565 3
1526 1527 4
1526 1566 1
1527 1528 1
1527 1567 3
1528 1529 5
1528 1568 1
1529 1530 4
1529 1569 5
1530 1531 4
1530 1570 3
1531 1532 1
1531 1571 2
1532 1533 4
1532 1572 3
1533 1534 2
1533 1573 5
1534 1535 4
1534 1574 4
1535 1536 1
1535 1575 2
1536 1537 2
1536 1576 5
1537 1538 2
1537 1577 3
1538 1539 2
1538 1578 4
1539 1540 5
1539 1579 4
1540 1541 5
1540 1580 3
1541 1542 3
1541 1581 3
1542 1543 5
1542 1582 4
1543 1544 5
1543 1583 1
1544 1545 1
1544 1584 1
1545 1546 3
1545 1585 4
1546 1547 3
1546 1586 1
1547 1548 5
1547 1587 2
1548 1549 1
1548 1588 1
1549 1550 3
1549 1589 1
1550 1551 1
1550 1590 5
1551 1552 3
1551 1591 4
1552 1553 5
1552 1592 2
1553 1554 2
1553 1593 4
1554 1555 2
1554 1594 5
1555 1556 1
1555 1595 1
1556 1557 5
1556 1596 2
1557 1558 2
1557 1597 5
1558 1559 4
1558 1598 5
1559 1560 5
1559 1599 5
1560 1600 2
1561 1562 2
1562 1563 5
1563 1564 5
1564 1565 2
1565 1566 1
1566 1567 5
1567 1568 4
1568 1569 2
1569 1570 2
1570 1571 5
1571 1572 3
1572 1573 3
1573 1574 2
1574 1575 5
1575 1576 4
1576 1577 4
1577 1578 5
1578 1579 3
1579 1580 2
1580 1581 2
1581 1582 1
1582 1583 4
1583 1584 3
1584 1585 2
1585 1586 2
1586 1587 3
1587 1588 3
1588 1589 5
1589 1590 4
1590 1591 5
1591 1592 3
1592 1593 1
1593 1594 5
1594 1595 5
1595 1596 3
1596 1597 4
1597 1598 5
1598 1599 3
1599 1600 4
1 1561 3
2 1562 4
3 1563 5
4 1564 2
5 1565 1
6 1566 1
7 1567 4
8 1568 5
9 1569 2
10 1570 2
11 1571 5
12 1572 4
13 1573 4
14 1574 1
15 1575 5
16 1576 3
17 1577 1
18 1578 2
19 1579 3
20 1580 2
21 1581 3
22 1582 5
23 1583 1
24 1584 5
25 1585 2
26 1586 3
27 1587 3
28 1588 4
29 1589 4
30 1590 3
31 1591 1
32 1592 1
33 1593 5
34 1594 1
35 1595 3
36 1596 4
37 1597 2
38 1598 1
39 1599 4
40 1600 5
1 40 4
41 80 2
81 120 1
121 160 4
161 200 1
201 240 5
241 280 3
281 320 4
321 360 5
361 400 3
401 440 1
441 480 3
481 520 4
521 560 5
561 600 1
601 640 2
641 680 5
681 720 2
721 760 4
761 800 2
801 840 4
841 880 1
881 920 4
921 960 1
961 1000 5
1001 1040 2
1041 1080 5
1081 1120 1
1121 1160 1
1161 1200 2
1201 1240 3
1241 1280 3
1281 1320 2
1321 1360 4
1361 1400 5
1401 1440 3
1441 1480 4
1481 1520 5
1521 1560 1
1561 1600 2
